sat
(= |goto_symex::&92;guard#1| true)
(= |goto_symex::&92;guard#2| true)
(= |goto_symex::&92;guard#3| true)
(= |nondet_symex::nondet0| false)
(= |nondet_symex::nondet1| true)
(= |nondet_symex::nondet2| true)
(= |nondet_symex::nondet3| false)
(= |nondet_symex::nondet4| false)
(= |nondet_symex::nondet5| false)
(= |memory_model::choice_rf_1_25_0_12_T_0| false)
(= |memory_model::choice_rf_1_25_2_4_T_1| false)
(= |memory_model::choice_rf_1_25_3_18_T_2| false)
(= |memory_model::choice_rf_1_25_4_16_T_3| true)
(= |memory_model::choice_rf_2_3_0_12_T_4| true)
(= |memory_model::choice_rf_2_3_1_26_T_5| false)
(= |memory_model::choice_rf_2_3_3_18_T_6| false)
(= |memory_model::choice_rf_2_3_4_16_T_7| false)
(= |memory_model::choice_rf_3_17_0_12_T_8| true)
(= |memory_model::choice_rf_3_17_1_26_T_9| false)
(= |memory_model::choice_rf_3_17_2_4_T_10| false)
(= |memory_model::choice_rf_3_17_4_16_T_11| false)
(= |memory_model::choice_rf_4_15_0_12_T_12| false)
(= |memory_model::choice_rf_4_15_1_26_T_13| false)
(= |memory_model::choice_rf_4_15_2_4_T_14| false)
(= |memory_model::choice_rf_4_15_3_18_T_15| true)
(= |memory_model::choice_rf_0_64_0_10_T_16| false)
(= |memory_model::choice_rf_0_64_0_60_T_17| true)
(= |memory_model::choice_rf_0_69_0_10_T_18| false)
(= |memory_model::choice_rf_0_69_0_60_T_19| false)
(= |memory_model::choice_rf_0_69_0_65_T_20| true)
(= |memory_model::choice_rf_0_74_0_10_T_21| false)
(= |memory_model::choice_rf_0_74_0_60_T_22| false)
(= |memory_model::choice_rf_0_74_0_65_T_23| false)
(= |memory_model::choice_rf_0_74_0_70_T_24| true)
(= |memory_model::choice_rf_0_94_0_39_F_25| false)
(= |memory_model::choice_rf_0_94_1_22_F_26| false)
(= |memory_model::choice_rf_0_94_2_0_F_27| true)
(= |memory_model::choice_rf_3_0_0_39_F_28| false)
(= |memory_model::choice_rf_3_0_1_22_F_29| false)
(= |memory_model::choice_rf_3_0_2_0_F_30| true)
(= |memory_model::choice_rf_0_78_0_13_F_31| false)
(= |memory_model::choice_rf_0_78_1_24_F_32| true)
(= |memory_model::choice_rf_0_78_2_2_F_33| false)
(= |memory_model::choice_rf_0_78_3_16_F_34| false)
(= |memory_model::choice_rf_0_78_4_14_F_35| false)
(= |memory_model::choice_rf_1_23_0_13_F_36| false)
(= |memory_model::choice_rf_1_23_2_2_F_37| false)
(= |memory_model::choice_rf_1_23_3_16_F_38| false)
(= |memory_model::choice_rf_1_23_4_14_F_39| true)
(= |memory_model::choice_rf_2_1_0_13_F_40| false)
(= |memory_model::choice_rf_2_1_1_24_F_41| false)
(= |memory_model::choice_rf_2_1_3_16_F_42| true)
(= |memory_model::choice_rf_2_1_4_14_F_43| false)
(= |memory_model::choice_rf_3_15_0_13_F_44| true)
(= |memory_model::choice_rf_3_15_1_24_F_45| false)
(= |memory_model::choice_rf_3_15_2_2_F_46| false)
(= |memory_model::choice_rf_3_15_4_14_F_47| false)
(= |memory_model::choice_rf_4_13_0_13_F_48| false)
(= |memory_model::choice_rf_4_13_1_24_F_49| false)
(= |memory_model::choice_rf_4_13_2_2_F_50| true)
(= |memory_model::choice_rf_4_13_3_16_F_51| false)
(= |memory_model::choice_rf_0_95_0_14_F_52| false)
(= |memory_model::choice_rf_0_95_1_7_F_53| false)
(= |memory_model::choice_rf_0_101_0_27_F_54| false)
(= |memory_model::choice_rf_0_101_1_19_F_55| true)
(= |memory_model::choice_rf_0_93_0_33_F_56| false)
(= |memory_model::choice_rf_0_93_3_1_F_57| true)
(= |memory_model::choice_rf_0_80_0_34_F_58| false)
(= |memory_model::choice_rf_0_80_0_79_F_59| true)
(= |memory_model::choice_rf_0_109_0_35_F_60| false)
(= |memory_model::choice_rf_0_125_0_35_F_61| false)
(= |memory_model::choice_rf_0_125_0_119_F_62| true)
(= |memory_model::choice_rf_0_126_0_35_F_63| false)
(= |memory_model::choice_rf_0_126_0_119_F_64| true)
(= |memory_model::choice_rf_0_81_0_40_F_65| false)
(= |memory_model::choice_rf_0_81_1_14_F_66| false)
(= |memory_model::choice_rf_0_81_3_2_F_67| false)
(= |memory_model::choice_rf_0_81_3_14_F_68| false)
(= |memory_model::choice_rf_0_81_4_0_F_69| false)
(= |memory_model::choice_rf_0_81_4_12_F_70| true)
(= |memory_model::choice_rf_0_103_0_40_F_71| false)
(= |memory_model::choice_rf_0_103_0_92_F_72| true)
(= |memory_model::choice_rf_0_103_1_14_F_73| false)
(= |memory_model::choice_rf_0_103_3_2_F_74| false)
(= |memory_model::choice_rf_0_103_3_14_F_75| false)
(= |memory_model::choice_rf_0_103_4_0_F_76| false)
(= |memory_model::choice_rf_0_103_4_12_F_77| false)
(= |memory_model::choice_rf_1_6_0_40_F_78| true)
(= |memory_model::choice_rf_1_6_0_92_F_79| false)
(= |memory_model::choice_rf_1_6_0_118_F_80| false)
(= |memory_model::choice_rf_1_6_3_2_F_81| false)
(= |memory_model::choice_rf_1_6_3_14_F_82| false)
(= |memory_model::choice_rf_1_6_4_0_F_83| false)
(= |memory_model::choice_rf_1_6_4_12_F_84| false)
(= |memory_model::choice_rf_3_3_0_40_F_85| false)
(= |memory_model::choice_rf_3_3_0_92_F_86| false)
(= |memory_model::choice_rf_3_3_0_118_F_87| false)
(= |memory_model::choice_rf_3_3_1_14_F_88| false)
(= |memory_model::choice_rf_3_3_3_2_F_89| true)
(= |memory_model::choice_rf_3_3_4_0_F_90| false)
(= |memory_model::choice_rf_3_3_4_12_F_91| false)
(= |memory_model::choice_rf_4_1_0_40_F_92| false)
(= |memory_model::choice_rf_4_1_0_92_F_93| false)
(= |memory_model::choice_rf_4_1_0_118_F_94| false)
(= |memory_model::choice_rf_4_1_1_14_F_95| false)
(= |memory_model::choice_rf_4_1_3_2_F_96| false)
(= |memory_model::choice_rf_4_1_3_14_F_97| false)
(= |memory_model::choice_rf_4_1_4_0_F_98| true)
(= |memory_model::choice_rf_0_102_0_41_F_99| false)
(= |memory_model::choice_rf_0_102_1_18_F_100| false)
(= |memory_model::choice_rf_0_104_0_42_F_101| false)
(= |memory_model::choice_rf_0_104_1_17_F_102| false)
(= |memory_model::choice_rf_0_86_0_43_F_103| true)
(= |memory_model::choice_rf_0_106_0_43_F_104| false)
(= |memory_model::choice_rf_0_106_0_89_F_105| true)
(= |memory_model::choice_rf_1_4_0_44_F_106| true)
(= |memory_model::choice_rf_3_8_0_46_F_107| true)
(= |memory_model::choice_rf_4_6_0_47_F_108| true)
(= |memory_model::choice_rf_0_83_0_48_F_109| true)
(= |memory_model::choice_rf_0_107_0_48_F_110| false)
(= |memory_model::choice_rf_0_107_0_88_F_111| true)
(= |memory_model::choice_rf_1_2_0_49_F_112| true)
(= |memory_model::choice_rf_3_5_0_51_F_113| true)
(= |memory_model::choice_rf_4_3_0_52_F_114| true)
(= |memory_model::choice_rf_0_85_0_55_F_115| false)
(= |memory_model::choice_rf_0_85_1_13_F_116| true)
(= |memory_model::choice_rf_0_108_0_55_F_117| false)
(= |memory_model::choice_rf_0_108_1_13_F_118| true)
(= |memory_model::choice_rf_1_3_0_55_F_119| true)
(= |memory_model::choice_rf_1_3_0_123_F_120| false)
(= |memory_model::choice_rf_3_7_0_55_F_121| false)
(= |memory_model::choice_rf_3_7_0_123_F_122| false)
(= |memory_model::choice_rf_3_7_1_13_F_123| true)
(= |memory_model::choice_rf_4_5_0_55_F_124| false)
(= |memory_model::choice_rf_4_5_0_123_F_125| false)
(= |memory_model::choice_rf_4_5_1_13_F_126| true)
(= |memory_model::choice_rf_0_87_0_56_F_127| false)
(= |memory_model::choice_rf_0_87_1_10_F_128| false)
(= |memory_model::choice_rf_0_87_3_13_F_129| false)
(= |memory_model::choice_rf_0_87_4_11_F_130| true)
(= |memory_model::choice_rf_0_105_0_56_F_131| false)
(= |memory_model::choice_rf_0_105_0_91_F_132| true)
(= |memory_model::choice_rf_0_105_1_10_F_133| false)
(= |memory_model::choice_rf_0_105_3_13_F_134| false)
(= |memory_model::choice_rf_0_105_4_11_F_135| false)
(= |memory_model::choice_rf_1_5_0_56_F_136| true)
(= |memory_model::choice_rf_1_5_0_91_F_137| false)
(= |memory_model::choice_rf_1_5_0_121_F_138| false)
(= |memory_model::choice_rf_1_5_3_13_F_139| false)
(= |memory_model::choice_rf_1_5_4_11_F_140| false)
(= |memory_model::choice_rf_3_9_0_56_F_141| false)
(= |memory_model::choice_rf_3_9_0_91_F_142| false)
(= |memory_model::choice_rf_3_9_0_121_F_143| false)
(= |memory_model::choice_rf_3_9_1_10_F_144| true)
(= |memory_model::choice_rf_3_9_4_11_F_145| false)
(= |memory_model::choice_rf_4_7_0_56_F_146| false)
(= |memory_model::choice_rf_4_7_0_91_F_147| false)
(= |memory_model::choice_rf_4_7_0_121_F_148| false)
(= |memory_model::choice_rf_4_7_1_10_F_149| false)
(= |memory_model::choice_rf_4_7_3_13_F_150| true)
(= |memory_model::choice_rf_0_82_0_57_F_151| false)
(= |memory_model::choice_rf_0_82_1_11_F_152| true)
(= |memory_model::choice_rf_0_110_0_57_F_153| false)
(= |memory_model::choice_rf_0_110_1_11_F_154| true)
(= |memory_model::choice_rf_1_0_0_57_F_155| true)
(= |memory_model::choice_rf_1_0_0_120_F_156| false)
(= |memory_model::choice_rf_3_4_0_57_F_157| false)
(= |memory_model::choice_rf_3_4_0_120_F_158| false)
(= |memory_model::choice_rf_3_4_1_11_F_159| true)
(= |memory_model::choice_rf_4_2_0_57_F_160| false)
(= |memory_model::choice_rf_4_2_0_120_F_161| false)
(= |memory_model::choice_rf_4_2_1_11_F_162| true)
(= |memory_model::choice_rf_0_84_0_58_F_163| false)
(= |memory_model::choice_rf_0_84_1_9_F_164| false)
(= |memory_model::choice_rf_0_84_3_12_F_165| false)
(= |memory_model::choice_rf_0_84_4_10_F_166| true)
(= |memory_model::choice_rf_0_98_0_58_F_167| false)
(= |memory_model::choice_rf_0_98_0_90_F_168| true)
(= |memory_model::choice_rf_0_98_1_9_F_169| false)
(= |memory_model::choice_rf_0_98_3_12_F_170| false)
(= |memory_model::choice_rf_0_98_4_10_F_171| false)
(= |memory_model::choice_rf_1_1_0_58_F_172| true)
(= |memory_model::choice_rf_1_1_0_90_F_173| false)
(= |memory_model::choice_rf_1_1_0_112_F_174| false)
(= |memory_model::choice_rf_1_1_3_12_F_175| false)
(= |memory_model::choice_rf_1_1_4_10_F_176| false)
(= |memory_model::choice_rf_3_6_0_58_F_177| false)
(= |memory_model::choice_rf_3_6_0_90_F_178| false)
(= |memory_model::choice_rf_3_6_0_112_F_179| false)
(= |memory_model::choice_rf_3_6_1_9_F_180| true)
(= |memory_model::choice_rf_3_6_4_10_F_181| false)
(= |memory_model::choice_rf_4_4_0_58_F_182| false)
(= |memory_model::choice_rf_4_4_0_90_F_183| false)
(= |memory_model::choice_rf_4_4_0_112_F_184| false)
(= |memory_model::choice_rf_4_4_1_9_F_185| false)
(= |memory_model::choice_rf_4_4_3_12_F_186| true)
(= |memory_model::choice_rf_0_97_0_36_F_187| false)
(= |memory_model::choice_rf_0_97_1_21_F_188| false)
(= |memory_model::choice_rf_0_99_0_37_F_189| false)
(= |memory_model::choice_rf_0_99_1_16_F_190| false)
(= |memory_model::choice_rf_0_100_0_38_F_191| false)
(= |memory_model::choice_rf_0_100_1_20_F_192| false)
(= |memory_model::choice_rf_0_96_0_3_F_193| true)
(= |memory_model::choice_ws-ext_0_12_1_26_T_194| true)
(= |memory_model::choice_ws-ext_0_12_2_4_T_195| true)
(= |memory_model::choice_ws-ext_0_12_3_18_T_196| true)
(= |memory_model::choice_ws-ext_0_12_4_16_T_197| true)
(= |memory_model::choice_ws-ext_1_26_2_4_T_198| false)
(= |memory_model::choice_ws-ext_1_26_3_18_T_199| false)
(= |memory_model::choice_ws-ext_1_26_4_16_T_200| false)
(= |memory_model::choice_ws-ext_2_4_3_18_T_201| true)
(= |memory_model::choice_ws-ext_2_4_4_16_T_202| true)
(= |memory_model::choice_ws-ext_3_18_4_16_T_203| true)
(= |memory_model::choice_ws-ext_0_39_1_22_F_204| true)
(= |memory_model::choice_ws-ext_0_39_2_0_F_205| true)
(= |memory_model::choice_ws-ext_1_22_2_0_F_206| true)
(= |memory_model::choice_ws-ext_0_13_1_24_F_207| true)
(= |memory_model::choice_ws-ext_0_13_2_2_F_208| true)
(= |memory_model::choice_ws-ext_0_13_3_16_F_209| true)
(= |memory_model::choice_ws-ext_0_13_4_14_F_210| true)
(= |memory_model::choice_ws-ext_1_24_2_2_F_211| false)
(= |memory_model::choice_ws-ext_1_24_3_16_F_212| false)
(= |memory_model::choice_ws-ext_1_24_4_14_F_213| false)
(= |memory_model::choice_ws-ext_2_2_3_16_F_214| false)
(= |memory_model::choice_ws-ext_2_2_4_14_F_215| true)
(= |memory_model::choice_ws-ext_3_16_4_14_F_216| true)
(= |memory_model::choice_ws-ext_0_14_1_7_F_217| true)
(= |memory_model::choice_ws-ext_0_117_1_7_F_218| false)
(= |memory_model::choice_ws-ext_0_27_1_19_F_219| true)
(= |memory_model::choice_ws-ext_0_28_1_12_F_220| true)
(= |memory_model::choice_ws-ext_0_33_3_1_F_221| true)
(= |memory_model::choice_ws-ext_0_40_1_14_F_222| true)
(= |memory_model::choice_ws-ext_0_40_3_2_F_223| true)
(= |memory_model::choice_ws-ext_0_40_3_14_F_224| true)
(= |memory_model::choice_ws-ext_0_40_4_0_F_225| true)
(= |memory_model::choice_ws-ext_0_40_4_12_F_226| true)
(= |memory_model::choice_ws-ext_0_92_1_14_F_227| false)
(= |memory_model::choice_ws-ext_0_92_3_2_F_228| false)
(= |memory_model::choice_ws-ext_0_92_3_14_F_229| false)
(= |memory_model::choice_ws-ext_0_92_4_0_F_230| false)
(= |memory_model::choice_ws-ext_0_92_4_12_F_231| false)
(= |memory_model::choice_ws-ext_0_118_1_14_F_232| false)
(= |memory_model::choice_ws-ext_0_118_3_2_F_233| false)
(= |memory_model::choice_ws-ext_0_118_3_14_F_234| false)
(= |memory_model::choice_ws-ext_0_118_4_0_F_235| false)
(= |memory_model::choice_ws-ext_0_118_4_12_F_236| false)
(= |memory_model::choice_ws-ext_1_14_3_2_F_237| true)
(= |memory_model::choice_ws-ext_1_14_3_14_F_238| true)
(= |memory_model::choice_ws-ext_1_14_4_0_F_239| true)
(= |memory_model::choice_ws-ext_1_14_4_12_F_240| true)
(= |memory_model::choice_ws-ext_3_2_4_0_F_241| true)
(= |memory_model::choice_ws-ext_3_2_4_12_F_242| true)
(= |memory_model::choice_ws-ext_3_14_4_0_F_243| true)
(= |memory_model::choice_ws-ext_3_14_4_12_F_244| true)
(= |memory_model::choice_ws-ext_0_41_1_18_F_245| true)
(= |memory_model::choice_ws-ext_0_115_1_18_F_246| false)
(= |memory_model::choice_ws-ext_0_42_1_17_F_247| true)
(= |memory_model::choice_ws-ext_0_116_1_17_F_248| false)
(= |memory_model::choice_ws-ext_0_44_1_8_F_249| true)
(= |memory_model::choice_ws-ext_0_46_3_11_F_250| true)
(= |memory_model::choice_ws-ext_0_47_4_9_F_251| true)
(= |memory_model::choice_ws-ext_0_49_1_15_F_252| true)
(= |memory_model::choice_ws-ext_0_51_3_10_F_253| true)
(= |memory_model::choice_ws-ext_0_52_4_8_F_254| true)
(= |memory_model::choice_ws-ext_0_55_1_13_F_255| true)
(= |memory_model::choice_ws-ext_0_123_1_13_F_256| false)
(= |memory_model::choice_ws-ext_0_56_1_10_F_257| true)
(= |memory_model::choice_ws-ext_0_56_3_13_F_258| true)
(= |memory_model::choice_ws-ext_0_56_4_11_F_259| true)
(= |memory_model::choice_ws-ext_0_91_1_10_F_260| false)
(= |memory_model::choice_ws-ext_0_91_3_13_F_261| false)
(= |memory_model::choice_ws-ext_0_91_4_11_F_262| false)
(= |memory_model::choice_ws-ext_0_121_1_10_F_263| false)
(= |memory_model::choice_ws-ext_0_121_3_13_F_264| false)
(= |memory_model::choice_ws-ext_0_121_4_11_F_265| false)
(= |memory_model::choice_ws-ext_1_10_3_13_F_266| true)
(= |memory_model::choice_ws-ext_1_10_4_11_F_267| true)
(= |memory_model::choice_ws-ext_3_13_4_11_F_268| true)
(= |memory_model::choice_ws-ext_0_57_1_11_F_269| true)
(= |memory_model::choice_ws-ext_0_120_1_11_F_270| false)
(= |memory_model::choice_ws-ext_0_58_1_9_F_271| true)
(= |memory_model::choice_ws-ext_0_58_3_12_F_272| true)
(= |memory_model::choice_ws-ext_0_58_4_10_F_273| true)
(= |memory_model::choice_ws-ext_0_90_1_9_F_274| false)
(= |memory_model::choice_ws-ext_0_90_3_12_F_275| false)
(= |memory_model::choice_ws-ext_0_90_4_10_F_276| false)
(= |memory_model::choice_ws-ext_0_112_1_9_F_277| false)
(= |memory_model::choice_ws-ext_0_112_3_12_F_278| false)
(= |memory_model::choice_ws-ext_0_112_4_10_F_279| false)
(= |memory_model::choice_ws-ext_1_9_3_12_F_280| true)
(= |memory_model::choice_ws-ext_1_9_4_10_F_281| true)
(= |memory_model::choice_ws-ext_3_12_4_10_F_282| true)
(= |memory_model::choice_ws-ext_0_36_1_21_F_283| true)
(= |memory_model::choice_ws-ext_0_111_1_21_F_284| false)
(= |memory_model::choice_ws-ext_0_37_1_16_F_285| true)
(= |memory_model::choice_ws-ext_0_114_1_16_F_286| false)
(= |memory_model::choice_ws-ext_0_38_1_20_F_287| true)
(= |memory_model::choice_ws-ext_0_113_1_20_F_288| false)
(= |main$tmp_guard0#3| #b00000001)
(= |__CPROVER_next_thread_id#3| #b00000000000000000000000000000001)
(= |__CPROVER_next_thread_id#6| #b00000000000000000000000000000010)
(= |__CPROVER_next_thread_id#9| #b00000000000000000000000000000011)
(= |__unbuffered_cnt#2| #b00000000000000000000000000000100)
(= |y$w_buff0_used#2| #b00000000)
(= |y$r_buff0_thd0#2| #b00000000)
(= |y$w_buff0#2| #b00000000000000000000000000000000)
(= |y$w_buff1_used#2| #b00000000)
(= |y$r_buff1_thd0#2| #b00000000)
(= |y$w_buff1#2| #b00000000000000000000000000000000)
(= |y#2| #b00000000000000000000000000000010)
(= |y#4| #b00000000000000000000000000000010)
(= |y$w_buff0_used#6| #b00000000)
(= |y$w_buff1_used#6| #b00000000)
(= |y$r_buff0_thd0#8| #b00000000)
(= |y$r_buff1_thd0#7| #b00000000)
(= |weak$$choice0#2| #b00000000)
(= |weak$$choice0#3| #b10000000)
(= |weak$$choice2#2| #b00000001)
(= |weak$$choice2#3| #b10000000)
(= |y$flush_delayed#2| #b00000001)
(= |y$flush_delayed#3| #b10000000)
(= |y#6| #b00000000000000000000000000000010)
(= |y$mem_tmp#2| #b00000000000000000000000000000010)
(= |y$mem_tmp#3| #b10000000000000000000000000000000)
(= |y$w_buff0_used#11| #b00000000)
(= |y$r_buff0_thd0#11| #b00000000)
(= |y$w_buff1_used#9| #b00000000)
(= |y$r_buff1_thd0#9| #b00000000)
(= |y$w_buff0#4| #b00000000000000000000000000000000)
(= |y$w_buff1#4| #b00000000000000000000000000000000)
(= |y#9| #b00000000000000000000000000000010)
(= |y$w_buff0#10| #b00000000000000000000000000000000)
(= |y$w_buff1#10| #b00000000000000000000000000000000)
(= |y$w_buff0_used#23| #b00000000)
(= |y$w_buff1_used#17| #b00000000)
(= |y$r_buff0_thd0#33| #b00000000)
(= |y$r_buff1_thd0#19| #b00000000)
(= |weak$$choice1#2| #b00000001)
(= |weak$$choice1#3| #b10000000)
(= |__unbuffered_p0_EAX$read_delayed#2| #b00000001)
(= |__unbuffered_p0_EAX$read_delayed_var$object#1| #b00000000000000000000000000000010)
(= |__unbuffered_p0_EAX#2| #b10000000000000000000000000000000)
(= |__unbuffered_p0_EAX#8| #b00000000000000000000000000000010)
(= |x#2| #b00000000000000000000000000000010)
(= |__unbuffered_p2_EAX#2| #b00000000000000000000000000000010)
(= |main$tmp_guard1#2| #b00000000)
(= |main$tmp_guard1#3| #b10000000)
(= |y#13| #b00000000000000000000000000000010)
(= |y$flush_delayed#6| #b00000000)
(= |main$tmp_guard1#6| #b00000000)
(= |pthread_create::1::this_thread_id!1@0#0| #b01100000000000000000000000000000)
(= |y#15| #b00000000000000000000000000000000)
(= |y$w_buff0_used#31| #b00000000)
(= |y$r_buff0_thd1#2| #b00000000)
(= |y$w_buff0#12| #b00000000000000000000000000000000)
(= |y$r_buff1_thd1#2| #b00000000)
(= |y$w_buff1_used#21| #b00000000)
(= |y$w_buff1#12| #b00000000000000000000000000000000)
(= |__unbuffered_cnt#4| #b00000000000000000000000000000011)
(= |pthread_create::1::this_thread_id!2@0#0| #b00100000000000000000000000000000)
(= |__unbuffered_cnt#7| #b00000000000000000000000000000001)
(= |pthread_create::1::this_thread_id!3@0#0| #b10000000000000000000000000000000)
(= |x#6| #b00000000000000000000000000000010)
(= |y$w_buff0_used#34| #b00000000)
(= |y$r_buff0_thd3#2| #b00000000)
(= |y$w_buff0#15| #b00000000000000000000000000000000)
(= |y$w_buff1_used#24| #b00000000)
(= |y$r_buff1_thd3#2| #b00000000)
(= |y$w_buff1#15| #b00000000000000000000000000000000)
(= |y#20| #b00000000000000000000000000000001)
(= |__unbuffered_cnt#10| #b00000000000000000000000000000000)
(= |pthread_create::1::this_thread_id!4@0#0| #b10000000000000000000000000000000)
(= |y$w_buff0_used#37| #b00000000)
(= |y$r_buff0_thd4#2| #b00000000)
(= |y$w_buff0#17| #b00000000000000000000000000000000)
(= |y$w_buff1_used#27| #b00000000)
(= |y$r_buff1_thd4#2| #b00000000)
(= |y$w_buff1#17| #b00000000000000000000000000000000)
(= |y#24| #b00000000000000000000000000000010)
(= |__unbuffered_cnt#13| #b00000000000000000000000000000010)
(= |__CPROVER_threads_exited#1$wclk$8| #b00001100)
(= |__CPROVER_threads_exited#2$rclk$8| #b11111101)
(= |__CPROVER_threads_exited#5$wclk$8| #b11110110)
(= |__CPROVER_threads_exited#7$wclk$8| #b11110111)
(= |__CPROVER_threads_exited#9$wclk$8| #b11111100)
(= |__CPROVER_threads_exited#4$rclk$8| #b11110000)
(= |__CPROVER_threads_exited#3$wclk$8| #b11111111)
(= |__CPROVER_threads_exited#6$rclk$8| #b11101110)
(= |__CPROVER_threads_exited#8$rclk$8| #b11111011)
(= |x#4$wclk$8| #b11010111)
(= |x#2$rclk$8| #b11101101)
(= |x#5$wclk$8| #b11011011)
(= |x#1$wclk$8| #b10111100)
(= |x#6$rclk$8| #b11011100)
(= |__unbuffered_cnt#6$wclk$8| #b11101001)
(= |__unbuffered_cnt#2$rclk$8| #b11101010)
(= |__unbuffered_cnt#9$wclk$8| #b11100001)
(= |__unbuffered_cnt#12$wclk$8| #b11011111)
(= |__unbuffered_cnt#15$wclk$8| #b11100111)
(= |__unbuffered_cnt#1$wclk$8| #b00001101)
(= |__unbuffered_cnt#4$rclk$8| #b11101001)
(= |__unbuffered_cnt#7$rclk$8| #b11100001)
(= |__unbuffered_cnt#10$rclk$8| #b11011111)
(= |__unbuffered_cnt#13$rclk$8| #b11100111)
(= |__unbuffered_p0_EAX#11$wclk$8| #b11010101)
(= |__unbuffered_p0_EAX#2$rclk$8| #b11101101)
(= |__unbuffered_p0_EAX$read_delayed#4$wclk$8| #b11010101)
(= |__unbuffered_p0_EAX$read_delayed#2$rclk$8| #b11101101)
(= |__unbuffered_p2_EAX#4$wclk$8| #b11011100)
(= |__unbuffered_p2_EAX#2$rclk$8| #b11101101)
(= |main$tmp_guard1#5| #b00000000)
(= |y#18$wclk$8| #b11010101)
(= |y#2$rclk$8| #b11101100)
(= |y#19$wclk$8| #b11011101)
(= |y#22$wclk$8| #b11011110)
(= |y#23$wclk$8| #b11100101)
(= |y#26$wclk$8| #b11100110)
(= |y#6$rclk$8| #b11101101)
(= |y#1$wclk$8| #b10111101)
(= |y#15$rclk$8| #b11010101)
(= |y#5$wclk$8| #b11101100)
(= |y#14$wclk$8| #b11101101)
(= |y#20$rclk$8| #b11011110)
(= |y#24$rclk$8| #b11100110)
(= |y$flush_delayed#9$wclk$8| #b11010101)
(= |y$flush_delayed#3$rclk$8| #b11101101)
(= |y$mem_tmp#6$wclk$8| #b11010101)
(= |y$mem_tmp#3$rclk$8| #b11101101)
(= |y$r_buff0_thd1#1$wclk$8| #b11000001)
(= |y$r_buff0_thd1#2$rclk$8| #b11010101)
(= |y$r_buff0_thd3#1$wclk$8| #b11000011)
(= |y$r_buff0_thd3#2$rclk$8| #b11011110)
(= |y$r_buff0_thd4#1$wclk$8| #b11000100)
(= |y$r_buff0_thd4#2$rclk$8| #b11100110)
(= |y$r_buff1_thd1#1$wclk$8| #b11000110)
(= |y$r_buff1_thd1#2$rclk$8| #b11010101)
(= |y$r_buff1_thd3#1$wclk$8| #b11001000)
(= |y$r_buff1_thd3#2$rclk$8| #b11011110)
(= |y$r_buff1_thd4#1$wclk$8| #b11001001)
(= |y$r_buff1_thd4#2$rclk$8| #b11100110)
(= |y$w_buff0#14$wclk$8| #b11010101)
(= |y$w_buff0#2$rclk$8| #b11101100)
(= |y$w_buff0#4$rclk$8| #b11101101)
(= |y$w_buff0#1$wclk$8| #b11001100)
(= |y$w_buff0#12$rclk$8| #b11010101)
(= |y$w_buff0#11$wclk$8| #b11101101)
(= |y$w_buff0#15$rclk$8| #b11011110)
(= |y$w_buff0#17$rclk$8| #b11100110)
(= |y$w_buff0_used#33$wclk$8| #b11010101)
(= |y$w_buff0_used#2$rclk$8| #b11101100)
(= |y$w_buff0_used#36$wclk$8| #b11011110)
(= |y$w_buff0_used#39$wclk$8| #b11100110)
(= |y$w_buff0_used#11$rclk$8| #b11101101)
(= |y$w_buff0_used#1$wclk$8| #b11001101)
(= |y$w_buff0_used#31$rclk$8| #b11010101)
(= |y$w_buff0_used#10$wclk$8| #b11101100)
(= |y$w_buff0_used#30$wclk$8| #b11101101)
(= |y$w_buff0_used#34$rclk$8| #b11011110)
(= |y$w_buff0_used#37$rclk$8| #b11100110)
(= |y$w_buff1#14$wclk$8| #b11010101)
(= |y$w_buff1#2$rclk$8| #b11101100)
(= |y$w_buff1#4$rclk$8| #b11101101)
(= |y$w_buff1#1$wclk$8| #b11001110)
(= |y$w_buff1#12$rclk$8| #b11010101)
(= |y$w_buff1#11$wclk$8| #b11101101)
(= |y$w_buff1#15$rclk$8| #b11011110)
(= |y$w_buff1#17$rclk$8| #b11100110)
(= |y$w_buff1_used#23$wclk$8| #b11010101)
(= |y$w_buff1_used#2$rclk$8| #b11101100)
(= |y$w_buff1_used#26$wclk$8| #b11011110)
(= |y$w_buff1_used#29$wclk$8| #b11100110)
(= |y$w_buff1_used#9$rclk$8| #b11101101)
(= |y$w_buff1_used#1$wclk$8| #b11001111)
(= |y$w_buff1_used#21$rclk$8| #b11010101)
(= |y$w_buff1_used#8$wclk$8| #b11101100)
(= |y$w_buff1_used#20$wclk$8| #b11101101)
(= |y$w_buff1_used#24$rclk$8| #b11011110)
(= |y$w_buff1_used#27$rclk$8| #b11100110)
(= |weak$$choice0#5$wclk$8| #b11010101)
(= |weak$$choice0#3$rclk$8| #b11101101)
(= |weak$$choice1#8$wclk$8| #b11010101)
(= |weak$$choice1#3$rclk$8| #b11101101)
(= |weak$$choice2#12$wclk$8| #b11010101)
(= |weak$$choice2#3$rclk$8| #b11101101)
(= __unbuffered_p0_EAX$read_delayed_var$object #b00000000000000000000000000000010)
(= |__unbuffered_p0_EAX#1$wclk$8| #b00001110)
(= |__unbuffered_p0_EAX#10$wclk$8| #b11101101)
(= |__unbuffered_p0_EAX$read_delayed#1$wclk$8| #b00101110)
(= |__unbuffered_p0_EAX$read_delayed_var#1$wclk$8| #b00101111)
(= |__unbuffered_p0_EAX$read_delayed_var#2$wclk$8| #b11010101)
(= |__unbuffered_p2_EAX#1$wclk$8| #b00111010)
(= |y$flush_delayed#1$wclk$8| #b10111110)
(= |y$flush_delayed#7$wclk$8| #b11101101)
(= |y$mem_tmp#1$wclk$8| #b10111111)
(= |y$mem_tmp#5$wclk$8| #b11101101)
(= |y$r_buff0_thd1#4$wclk$8| #b11010101)
(= |y$r_buff0_thd3#4$wclk$8| #b11011110)
(= |y$r_buff0_thd4#4$wclk$8| #b11100110)
(= |y$r_buff1_thd1#4$wclk$8| #b11010101)
(= |y$r_buff1_thd3#4$wclk$8| #b11011110)
(= |y$r_buff1_thd4#4$wclk$8| #b11100110)
(= |weak$$choice0#1$wclk$8| #b00111101)
(= |weak$$choice0#4$wclk$8| #b11101101)
(= |weak$$choice1#1$wclk$8| #b00111110)
(= |weak$$choice1#7$wclk$8| #b11101101)
(= |weak$$choice2#1$wclk$8| #b00111111)
(= |weak$$choice2#11$wclk$8| #b11101101)
(= t1$62$spwnclk$8 #b11010011)
(= t1$67$spwnclk$8 #b11010111)
(= t1$72$spwnclk$8 #b11011011)
(= t1$77$spwnclk$8 #b11100100)
(= |main::1::t2148!0@1$wclk$8| #b00000000)
(= |main::1::t2149!0@1$wclk$8| #b00000001)
(= |main::1::t2150!0@1$wclk$8| #b00000010)
(= __unbuffered_p0_EAX$read_delayed_var$object$wclk$8 #b00000011)
(= |__CPROVER_dead_object#1$wclk$8| #b00000100)
(= |__CPROVER_deallocated#1$wclk$8| #b00000101)
(= |__CPROVER_malloc_is_new_array#1$wclk$8| #b00000110)
(= |__CPROVER_malloc_object#1$wclk$8| #b00000111)
(= |__CPROVER_malloc_size#1$wclk$8| #b00001000)
(= |__CPROVER_memory_leak#1$wclk$8| #b00001001)
(= |__CPROVER_next_thread_id#1$wclk$8| #b00001010)
(= |__CPROVER_pipe_count#1$wclk$8| #b00001011)
(= |__unbuffered_p0_EAX$flush_delayed#1$wclk$8| #b00001111)
(= |__unbuffered_p0_EAX$mem_tmp#1$wclk$8| #b00010111)
(= |__unbuffered_p0_EAX$r_buff0_thd0#1$wclk$8| #b00011000)
(= |__unbuffered_p0_EAX$r_buff0_thd1#1$wclk$8| #b00100001)
(= |__unbuffered_p0_EAX$r_buff0_thd2#1$wclk$8| #b00100010)
(= |__unbuffered_p0_EAX$r_buff0_thd3#1$wclk$8| #b00100011)
(= |__unbuffered_p0_EAX$r_buff0_thd4#1$wclk$8| #b00100100)
(= |__unbuffered_p0_EAX$r_buff1_thd0#1$wclk$8| #b00100101)
(= |__unbuffered_p0_EAX$r_buff1_thd1#1$wclk$8| #b00100110)
(= |__unbuffered_p0_EAX$r_buff1_thd2#1$wclk$8| #b00100111)
(= |__unbuffered_p0_EAX$r_buff1_thd3#1$wclk$8| #b00101100)
(= |__unbuffered_p0_EAX$r_buff1_thd4#1$wclk$8| #b00101101)
(= |__unbuffered_p0_EAX$w_buff0#1$wclk$8| #b00110100)
(= |__unbuffered_p0_EAX$w_buff0_used#1$wclk$8| #b00110110)
(= |__unbuffered_p0_EAX$w_buff1#1$wclk$8| #b00111000)
(= |__unbuffered_p0_EAX$w_buff1_used#1$wclk$8| #b00111001)
(= |main$tmp_guard0#1$wclk$8| #b00111011)
(= |main$tmp_guard1#1$wclk$8| #b00111100)
(= |y$r_buff0_thd0#1$wclk$8| #b11000000)
(= |y$r_buff0_thd2#1$wclk$8| #b11000010)
(= |y$r_buff1_thd0#1$wclk$8| #b11000101)
(= |y$r_buff1_thd2#1$wclk$8| #b11000111)
(= |y$read_delayed#1$wclk$8| #b11001010)
(= |y$read_delayed_var#1$wclk$8| #b11001011)
(= |main::1::t2147!0@1#1$wclk$8| #b11010000)
(= |__CPROVER_next_thread_id#2$wclk$8| #b11010001)
(= |main::1::t2147!0@1#2$wclk$8| #b11010010)
(= |main::1::t2148!0@1#1$wclk$8| #b11010100)
(= |__CPROVER_next_thread_id#3$rclk$8| #b11010101)
(= |__CPROVER_next_thread_id#5$wclk$8| #b11010101)
(= |main::1::t2148!0@1#2$wclk$8| #b11010110)
(= |main::1::t2149!0@1#1$wclk$8| #b11011000)
(= |__CPROVER_next_thread_id#6$rclk$8| #b11011001)
(= |__CPROVER_next_thread_id#8$wclk$8| #b11011001)
(= |main::1::t2149!0@1#2$wclk$8| #b11011010)
(= |main::1::t2150!0@1#1$wclk$8| #b11011111)
(= |__CPROVER_next_thread_id#9$rclk$8| #b11100010)
(= |__CPROVER_next_thread_id#11$wclk$8| #b11100010)
(= |main::1::t2150!0@1#2$wclk$8| #b11100011)
(= |main$tmp_guard0#2$wclk$8| #b11101010)
(= |main$tmp_guard0#3$rclk$8| #b11101011)
(= |y$r_buff1_thd0#2$rclk$8| #b11101100)
(= |y$r_buff0_thd0#2$rclk$8| #b11101100)
(= |y$r_buff1_thd0#8$wclk$8| #b11101100)
(= |y$r_buff0_thd0#10$wclk$8| #b11101100)
(= |__unbuffered_p0_EAX$read_delayed_var$object#1$rclk$8| #b11101101)
(= |y$r_buff0_thd0#11$rclk$8| #b11101101)
(= |y$r_buff1_thd0#9$rclk$8| #b11101101)
(= |main$tmp_guard1#3$rclk$8| #b11101101)
(= |main$tmp_guard1#4$wclk$8| #b11101101)
(= |y$r_buff0_thd0#37$wclk$8| #b11101101)
(= |y$r_buff1_thd0#20$wclk$8| #b11101101)
(= |main$tmp_guard1#5$rclk$8| #b11110010)
(= |main$tmp_guard1#6$rclk$8| #b11110011)
(= array_of.0 @fun_13)
(= |__CPROVER_threads_exited#2| @fun_13)
(= |__CPROVER_threads_exited#4| @fun_13)
(= |__CPROVER_threads_exited#6| @fun_13)
(= |__CPROVER_threads_exited#8| @fun_13)
(function @fun_13
 (type (Array (_ BitVec 32) (_ BitVec 1)))
 (= (@fun_13 #b00100000000000000000000000000000) #b0)
 (= (@fun_13 #b10100000000000000000000000000000) #b0)
 (= (@fun_13 #b00000000000000000000000000000000) #b0)
 (default #b1))

real	0m0.027s
user	0m0.023s
sys	0m0.003s
State: AC Run_time: 0.028537273406982422